MARKOV
44
2 2 2 2 2 2 2 2 2 2 2 2 2 2 2 2 2 2 2 2 2 2 2 2 2 2 2 2 2 2 2 2 2 2 2 2 2 2 2 2 2 2 2 2 
528
1	0 
1	1 
1	2 
1	3 
1	4 
1	5 
1	6 
1	7 
1	8 
1	9 
1	10 
1	11 
1	12 
1	13 
1	14 
1	15 
1	16 
1	17 
1	18 
1	19 
1	20 
1	21 
1	22 
1	23 
1	24 
1	25 
1	26 
1	27 
1	28 
1	29 
1	30 
1	31 
1	32 
1	33 
1	34 
1	35 
1	36 
1	37 
1	38 
1	39 
1	40 
1	41 
1	42 
1	43 
2	0 22 
2	0 23 
2	0 24 
2	0 25 
2	0 26 
2	0 27 
2	0 28 
2	0 29 
2	0 30 
2	0 31 
2	0 32 
2	0 33 
2	0 34 
2	0 35 
2	0 36 
2	0 37 
2	0 38 
2	0 39 
2	0 40 
2	0 41 
2	0 42 
2	0 43 
2	1 22 
2	1 23 
2	1 24 
2	1 25 
2	1 26 
2	1 27 
2	1 28 
2	1 29 
2	1 30 
2	1 31 
2	1 32 
2	1 33 
2	1 34 
2	1 35 
2	1 36 
2	1 37 
2	1 38 
2	1 39 
2	1 40 
2	1 41 
2	1 42 
2	1 43 
2	2 22 
2	2 23 
2	2 24 
2	2 25 
2	2 26 
2	2 27 
2	2 28 
2	2 29 
2	2 30 
2	2 31 
2	2 32 
2	2 33 
2	2 34 
2	2 35 
2	2 36 
2	2 37 
2	2 38 
2	2 39 
2	2 40 
2	2 41 
2	2 42 
2	2 43 
2	3 22 
2	3 23 
2	3 24 
2	3 25 
2	3 26 
2	3 27 
2	3 28 
2	3 29 
2	3 30 
2	3 31 
2	3 32 
2	3 33 
2	3 34 
2	3 35 
2	3 36 
2	3 37 
2	3 38 
2	3 39 
2	3 40 
2	3 41 
2	3 42 
2	3 43 
2	4 22 
2	4 23 
2	4 24 
2	4 25 
2	4 26 
2	4 27 
2	4 28 
2	4 29 
2	4 30 
2	4 31 
2	4 32 
2	4 33 
2	4 34 
2	4 35 
2	4 36 
2	4 37 
2	4 38 
2	4 39 
2	4 40 
2	4 41 
2	4 42 
2	4 43 
2	5 22 
2	5 23 
2	5 24 
2	5 25 
2	5 26 
2	5 27 
2	5 28 
2	5 29 
2	5 30 
2	5 31 
2	5 32 
2	5 33 
2	5 34 
2	5 35 
2	5 36 
2	5 37 
2	5 38 
2	5 39 
2	5 40 
2	5 41 
2	5 42 
2	5 43 
2	6 22 
2	6 23 
2	6 24 
2	6 25 
2	6 26 
2	6 27 
2	6 28 
2	6 29 
2	6 30 
2	6 31 
2	6 32 
2	6 33 
2	6 34 
2	6 35 
2	6 36 
2	6 37 
2	6 38 
2	6 39 
2	6 40 
2	6 41 
2	6 42 
2	6 43 
2	7 22 
2	7 23 
2	7 24 
2	7 25 
2	7 26 
2	7 27 
2	7 28 
2	7 29 
2	7 30 
2	7 31 
2	7 32 
2	7 33 
2	7 34 
2	7 35 
2	7 36 
2	7 37 
2	7 38 
2	7 39 
2	7 40 
2	7 41 
2	7 42 
2	7 43 
2	8 22 
2	8 23 
2	8 24 
2	8 25 
2	8 26 
2	8 27 
2	8 28 
2	8 29 
2	8 30 
2	8 31 
2	8 32 
2	8 33 
2	8 34 
2	8 35 
2	8 36 
2	8 37 
2	8 38 
2	8 39 
2	8 40 
2	8 41 
2	8 42 
2	8 43 
2	9 22 
2	9 23 
2	9 24 
2	9 25 
2	9 26 
2	9 27 
2	9 28 
2	9 29 
2	9 30 
2	9 31 
2	9 32 
2	9 33 
2	9 34 
2	9 35 
2	9 36 
2	9 37 
2	9 38 
2	9 39 
2	9 40 
2	9 41 
2	9 42 
2	9 43 
2	10 22 
2	10 23 
2	10 24 
2	10 25 
2	10 26 
2	10 27 
2	10 28 
2	10 29 
2	10 30 
2	10 31 
2	10 32 
2	10 33 
2	10 34 
2	10 35 
2	10 36 
2	10 37 
2	10 38 
2	10 39 
2	10 40 
2	10 41 
2	10 42 
2	10 43 
2	11 22 
2	11 23 
2	11 24 
2	11 25 
2	11 26 
2	11 27 
2	11 28 
2	11 29 
2	11 30 
2	11 31 
2	11 32 
2	11 33 
2	11 34 
2	11 35 
2	11 36 
2	11 37 
2	11 38 
2	11 39 
2	11 40 
2	11 41 
2	11 42 
2	11 43 
2	12 22 
2	12 23 
2	12 24 
2	12 25 
2	12 26 
2	12 27 
2	12 28 
2	12 29 
2	12 30 
2	12 31 
2	12 32 
2	12 33 
2	12 34 
2	12 35 
2	12 36 
2	12 37 
2	12 38 
2	12 39 
2	12 40 
2	12 41 
2	12 42 
2	12 43 
2	13 22 
2	13 23 
2	13 24 
2	13 25 
2	13 26 
2	13 27 
2	13 28 
2	13 29 
2	13 30 
2	13 31 
2	13 32 
2	13 33 
2	13 34 
2	13 35 
2	13 36 
2	13 37 
2	13 38 
2	13 39 
2	13 40 
2	13 41 
2	13 42 
2	13 43 
2	14 22 
2	14 23 
2	14 24 
2	14 25 
2	14 26 
2	14 27 
2	14 28 
2	14 29 
2	14 30 
2	14 31 
2	14 32 
2	14 33 
2	14 34 
2	14 35 
2	14 36 
2	14 37 
2	14 38 
2	14 39 
2	14 40 
2	14 41 
2	14 42 
2	14 43 
2	15 22 
2	15 23 
2	15 24 
2	15 25 
2	15 26 
2	15 27 
2	15 28 
2	15 29 
2	15 30 
2	15 31 
2	15 32 
2	15 33 
2	15 34 
2	15 35 
2	15 36 
2	15 37 
2	15 38 
2	15 39 
2	15 40 
2	15 41 
2	15 42 
2	15 43 
2	16 22 
2	16 23 
2	16 24 
2	16 25 
2	16 26 
2	16 27 
2	16 28 
2	16 29 
2	16 30 
2	16 31 
2	16 32 
2	16 33 
2	16 34 
2	16 35 
2	16 36 
2	16 37 
2	16 38 
2	16 39 
2	16 40 
2	16 41 
2	16 42 
2	16 43 
2	17 22 
2	17 23 
2	17 24 
2	17 25 
2	17 26 
2	17 27 
2	17 28 
2	17 29 
2	17 30 
2	17 31 
2	17 32 
2	17 33 
2	17 34 
2	17 35 
2	17 36 
2	17 37 
2	17 38 
2	17 39 
2	17 40 
2	17 41 
2	17 42 
2	17 43 
2	18 22 
2	18 23 
2	18 24 
2	18 25 
2	18 26 
2	18 27 
2	18 28 
2	18 29 
2	18 30 
2	18 31 
2	18 32 
2	18 33 
2	18 34 
2	18 35 
2	18 36 
2	18 37 
2	18 38 
2	18 39 
2	18 40 
2	18 41 
2	18 42 
2	18 43 
2	19 22 
2	19 23 
2	19 24 
2	19 25 
2	19 26 
2	19 27 
2	19 28 
2	19 29 
2	19 30 
2	19 31 
2	19 32 
2	19 33 
2	19 34 
2	19 35 
2	19 36 
2	19 37 
2	19 38 
2	19 39 
2	19 40 
2	19 41 
2	19 42 
2	19 43 
2	20 22 
2	20 23 
2	20 24 
2	20 25 
2	20 26 
2	20 27 
2	20 28 
2	20 29 
2	20 30 
2	20 31 
2	20 32 
2	20 33 
2	20 34 
2	20 35 
2	20 36 
2	20 37 
2	20 38 
2	20 39 
2	20 40 
2	20 41 
2	20 42 
2	20 43 
2	21 22 
2	21 23 
2	21 24 
2	21 25 
2	21 26 
2	21 27 
2	21 28 
2	21 29 
2	21 30 
2	21 31 
2	21 32 
2	21 33 
2	21 34 
2	21 35 
2	21 36 
2	21 37 
2	21 38 
2	21 39 
2	21 40 
2	21 41 
2	21 42 
2	21 43 

2
0.688397 1.452650 

2
2.789486 0.358489 

2
1.077513 0.928063 

2
1.571186 0.636462 

2
1.002649 0.997358 

2
1.984703 0.503854 

2
0.290606 3.441084 

2
1.041647 0.960018 

2
2.449252 0.408288 

2
1.689257 0.591976 

2
3.912136 0.255615 

2
0.480008 2.083300 

2
1.558197 0.641767 

2
1.159602 0.862365 

2
0.479559 2.085248 

2
0.679349 1.471998 

2
0.736400 1.357958 

2
4.771446 0.209580 

2
0.350526 2.852857 

2
0.973762 1.026945 

2
1.028678 0.972122 

2
0.860372 1.162288 

2
2.300383 0.434710 

2
1.806255 0.553632 

2
1.459185 0.685314 

2
0.997004 1.003005 

2
0.935756 1.068655 

2
0.260174 3.843584 

2
2.147385 0.465683 

2
1.301673 0.768242 

2
6.080076 0.164472 

2
1.778435 0.562292 

2
0.130806 7.644906 

2
1.870213 0.534698 

2
0.762250 1.311905 

2
0.252103 3.966639 

2
1.917821 0.521425 

2
0.308533 3.241144 

2
1.071892 0.932930 

2
1.223908 0.817055 

2
0.598090 1.671990 

2
0.516264 1.936992 

2
2.223295 0.449783 

2
0.701778 1.424952 

4
8.772766 0.113989 0.113989 8.772766 

4
1.733077 0.577008 0.577008 1.733077 

4
2.040906 0.489978 0.489978 2.040906 

4
1.495426 0.668706 0.668706 1.495426 

4
1.307489 0.764825 0.764825 1.307489 

4
1.707911 0.585511 0.585511 1.707911 

4
1.626187 0.614935 0.614935 1.626187 

4
1.484816 0.673484 0.673484 1.484816 

4
2.490843 0.401471 0.401471 2.490843 

4
1.694370 0.590190 0.590190 1.694370 

4
4.303265 0.232382 0.232382 4.303265 

4
3.179112 0.314553 0.314553 3.179112 

4
1.286751 0.777151 0.777151 1.286751 

4
1.047200 0.954927 0.954927 1.047200 

4
1.796627 0.556599 0.556599 1.796627 

4
1.295478 0.771916 0.771916 1.295478 

4
1.756044 0.569462 0.569462 1.756044 

4
4.805794 0.208082 0.208082 4.805794 

4
5.485929 0.182285 0.182285 5.485929 

4
3.673042 0.272254 0.272254 3.673042 

4
2.373913 0.421245 0.421245 2.373913 

4
1.449608 0.689842 0.689842 1.449608 

4
3.200645 0.312437 0.312437 3.200645 

4
1.651993 0.605329 0.605329 1.651993 

4
3.152438 0.317215 0.317215 3.152438 

4
1.279391 0.781622 0.781622 1.279391 

4
1.395237 0.716724 0.716724 1.395237 

4
5.482848 0.182387 0.182387 5.482848 

4
4.180048 0.239232 0.239232 4.180048 

4
1.434726 0.696997 0.696997 1.434726 

4
1.179379 0.847904 0.847904 1.179379 

4
1.139871 0.877292 0.877292 1.139871 

4
1.117932 0.894509 0.894509 1.117932 

4
1.554721 0.643202 0.643202 1.554721 

4
1.083823 0.922660 0.922660 1.083823 

4
1.432278 0.698188 0.698188 1.432278 

4
1.024787 0.975812 0.975812 1.024787 

4
40.331501 0.024795 0.024795 40.331501 

4
5.383944 0.185737 0.185737 5.383944 

4
2.482988 0.402741 0.402741 2.482988 

4
1.739014 0.575039 0.575039 1.739014 

4
1.796305 0.556698 0.556698 1.796305 

4
1.415039 0.706694 0.706694 1.415039 

4
1.193280 0.838026 0.838026 1.193280 

4
1.870255 0.534686 0.534686 1.870255 

4
18.243482 0.054814 0.054814 18.243482 

4
5.435001 0.183993 0.183993 5.435001 

4
1.213593 0.823999 0.823999 1.213593 

4
1.502557 0.665532 0.665532 1.502557 

4
4.335872 0.230634 0.230634 4.335872 

4
1.668263 0.599426 0.599426 1.668263 

4
1.850706 0.540334 0.540334 1.850706 

4
1.472924 0.678922 0.678922 1.472924 

4
3.180947 0.314372 0.314372 3.180947 

4
1.892885 0.528294 0.528294 1.892885 

4
1.507113 0.663520 0.663520 1.507113 

4
1.024905 0.975701 0.975701 1.024905 

4
1.395361 0.716660 0.716660 1.395361 

4
1.277928 0.782516 0.782516 1.277928 

4
1.190469 0.840005 0.840005 1.190469 

4
1.927163 0.518897 0.518897 1.927163 

4
2.072676 0.482468 0.482468 2.072676 

4
3.573456 0.279841 0.279841 3.573456 

4
1.143450 0.874546 0.874546 1.143450 

4
2.595336 0.385307 0.385307 2.595336 

4
1.090496 0.917014 0.917014 1.090496 

4
1.484656 0.673557 0.673557 1.484656 

4
1.245382 0.802967 0.802967 1.245382 

4
2.096377 0.477014 0.477014 2.096377 

4
2.269770 0.440573 0.440573 2.269770 

4
1.564468 0.639195 0.639195 1.564468 

4
2.569920 0.389117 0.389117 2.569920 

4
2.498077 0.400308 0.400308 2.498077 

4
1.217436 0.821399 0.821399 1.217436 

4
1.118791 0.893822 0.893822 1.118791 

4
1.225056 0.816289 0.816289 1.225056 

4
4.193849 0.238444 0.238444 4.193849 

4
2.192711 0.456057 0.456057 2.192711 

4
1.760609 0.567985 0.567985 1.760609 

4
12.650032 0.079051 0.079051 12.650032 

4
1.178318 0.848667 0.848667 1.178318 

4
12.835547 0.077909 0.077909 12.835547 

4
2.402908 0.416162 0.416162 2.402908 

4
3.629843 0.275494 0.275494 3.629843 

4
2.186499 0.457352 0.457352 2.186499 

4
1.238642 0.807336 0.807336 1.238642 

4
3.742025 0.267235 0.267235 3.742025 

4
1.687476 0.592601 0.592601 1.687476 

4
1.323435 0.755609 0.755609 1.323435 

4
1.105657 0.904439 0.904439 1.105657 

4
2.299198 0.434934 0.434934 2.299198 

4
2.120899 0.471498 0.471498 2.120899 

4
1.939197 0.515677 0.515677 1.939197 

4
3.911719 0.255642 0.255642 3.911719 

4
1.123148 0.890355 0.890355 1.123148 

4
1.448662 0.690292 0.690292 1.448662 

4
1.314100 0.760977 0.760977 1.314100 

4
2.266935 0.441124 0.441124 2.266935 

4
1.341296 0.745547 0.745547 1.341296 

4
6.254632 0.159882 0.159882 6.254632 

4
1.497919 0.667593 0.667593 1.497919 

4
1.150674 0.869056 0.869056 1.150674 

4
1.057891 0.945277 0.945277 1.057891 

4
13.024719 0.076777 0.076777 13.024719 

4
3.230671 0.309533 0.309533 3.230671 

4
1.252239 0.798569 0.798569 1.252239 

4
2.556391 0.391176 0.391176 2.556391 

4
1.195093 0.836755 0.836755 1.195093 

4
1.135720 0.880499 0.880499 1.135720 

4
2.661514 0.375726 0.375726 2.661514 

4
1.577001 0.634115 0.634115 1.577001 

4
2.015793 0.496083 0.496083 2.015793 

4
1.916193 0.521868 0.521868 1.916193 

4
1.188449 0.841433 0.841433 1.188449 

4
2.806908 0.356264 0.356264 2.806908 

4
1.317159 0.759210 0.759210 1.317159 

4
2.883698 0.346777 0.346777 2.883698 

4
8.078708 0.123782 0.123782 8.078708 

4
3.457135 0.289257 0.289257 3.457135 

4
4.545818 0.219982 0.219982 4.545818 

4
2.221795 0.450087 0.450087 2.221795 

4
1.344891 0.743555 0.743555 1.344891 

4
1.482443 0.674562 0.674562 1.482443 

4
6.274476 0.159376 0.159376 6.274476 

4
16.079724 0.062190 0.062190 16.079724 

4
1.125108 0.888804 0.888804 1.125108 

4
1.510803 0.661899 0.661899 1.510803 

4
4.662699 0.214468 0.214468 4.662699 

4
4.968509 0.201268 0.201268 4.968509 

4
1.208149 0.827712 0.827712 1.208149 

4
3.510810 0.284835 0.284835 3.510810 

4
1.145589 0.872913 0.872913 1.145589 

4
1.198385 0.834457 0.834457 1.198385 

4
2.361746 0.423415 0.423415 2.361746 

4
1.285682 0.777798 0.777798 1.285682 

4
2.603355 0.384120 0.384120 2.603355 

4
1.497429 0.667811 0.667811 1.497429 

4
5.901334 0.169453 0.169453 5.901334 

4
1.136440 0.879941 0.879941 1.136440 

4
7.195493 0.138976 0.138976 7.195493 

4
2.534629 0.394535 0.394535 2.534629 

4
3.965315 0.252187 0.252187 3.965315 

4
4.946546 0.202161 0.202161 4.946546 

4
1.882868 0.531105 0.531105 1.882868 

4
1.806679 0.553502 0.553502 1.806679 

4
1.480070 0.675644 0.675644 1.480070 

4
3.552184 0.281517 0.281517 3.552184 

4
1.065953 0.938128 0.938128 1.065953 

4
3.118038 0.320715 0.320715 3.118038 

4
1.791039 0.558335 0.558335 1.791039 

4
1.638840 0.610188 0.610188 1.638840 

4
2.103890 0.475310 0.475310 2.103890 

4
1.419111 0.704667 0.704667 1.419111 

4
2.581922 0.387308 0.387308 2.581922 

4
1.479952 0.675697 0.675697 1.479952 

4
3.510731 0.284841 0.284841 3.510731 

4
3.258522 0.306888 0.306888 3.258522 

4
2.645923 0.377940 0.377940 2.645923 

4
3.728260 0.268222 0.268222 3.728260 

4
2.416927 0.413749 0.413749 2.416927 

4
8.223884 0.121597 0.121597 8.223884 

4
2.607179 0.383556 0.383556 2.607179 

4
3.671558 0.272364 0.272364 3.671558 

4
2.866740 0.348828 0.348828 2.866740 

4
2.254472 0.443563 0.443563 2.254472 

4
2.402549 0.416225 0.416225 2.402549 

4
4.447767 0.224832 0.224832 4.447767 

4
2.332603 0.428706 0.428706 2.332603 

4
2.752106 0.363358 0.363358 2.752106 

4
1.063203 0.940554 0.940554 1.063203 

4
1.263510 0.791446 0.791446 1.263510 

4
4.479010 0.223264 0.223264 4.479010 

4
1.587111 0.630075 0.630075 1.587111 

4
1.145162 0.873239 0.873239 1.145162 

4
1.007724 0.992335 0.992335 1.007724 

4
3.547419 0.281895 0.281895 3.547419 

4
11.366408 0.087979 0.087979 11.366408 

4
4.636904 0.215661 0.215661 4.636904 

4
1.491928 0.670274 0.670274 1.491928 

4
4.774093 0.209464 0.209464 4.774093 

4
1.095277 0.913011 0.913011 1.095277 

4
2.289935 0.436694 0.436694 2.289935 

4
1.821606 0.548966 0.548966 1.821606 

4
2.825844 0.353877 0.353877 2.825844 

4
8.182942 0.122205 0.122205 8.182942 

4
3.078028 0.324883 0.324883 3.078028 

4
1.949387 0.512982 0.512982 1.949387 

4
1.076782 0.928693 0.928693 1.076782 

4
1.890480 0.528966 0.528966 1.890480 

4
1.306408 0.765458 0.765458 1.306408 

4
2.429122 0.411671 0.411671 2.429122 

4
1.392173 0.718302 0.718302 1.392173 

4
2.231715 0.448086 0.448086 2.231715 

4
1.731843 0.577420 0.577420 1.731843 

4
1.147562 0.871412 0.871412 1.147562 

4
1.845129 0.541968 0.541968 1.845129 

4
2.710237 0.368971 0.368971 2.710237 

4
1.459877 0.684989 0.684989 1.459877 

4
1.526665 0.655023 0.655023 1.526665 

4
1.316505 0.759587 0.759587 1.316505 

4
1.276236 0.783554 0.783554 1.276236 

4
1.154813 0.865941 0.865941 1.154813 

4
1.719875 0.581438 0.581438 1.719875 

4
1.321842 0.756520 0.756520 1.321842 

4
3.153393 0.317119 0.317119 3.153393 

4
6.096791 0.164021 0.164021 6.096791 

4
2.635617 0.379418 0.379418 2.635617 

4
1.109452 0.901346 0.901346 1.109452 

4
1.434185 0.697260 0.697260 1.434185 

4
2.185946 0.457468 0.457468 2.185946 

4
4.511911 0.221636 0.221636 4.511911 

4
3.561609 0.280772 0.280772 3.561609 

4
2.023369 0.494225 0.494225 2.023369 

4
1.255800 0.796305 0.796305 1.255800 

4
2.201006 0.454338 0.454338 2.201006 

4
1.621709 0.616634 0.616634 1.621709 

4
1.941513 0.515062 0.515062 1.941513 

4
4.143224 0.241358 0.241358 4.143224 

4
1.877234 0.532699 0.532699 1.877234 

4
1.364691 0.732767 0.732767 1.364691 

4
1.050669 0.951774 0.951774 1.050669 

4
1.788570 0.559106 0.559106 1.788570 

4
1.264247 0.790985 0.790985 1.264247 

4
1.266034 0.789868 0.789868 1.266034 

4
1.409597 0.709423 0.709423 1.409597 

4
4.756155 0.210254 0.210254 4.756155 

4
4.708560 0.212379 0.212379 4.708560 

4
2.105470 0.474953 0.474953 2.105470 

4
1.208645 0.827373 0.827373 1.208645 

4
2.412198 0.414560 0.414560 2.412198 

4
3.429868 0.291556 0.291556 3.429868 

4
1.344336 0.743862 0.743862 1.344336 

4
1.649609 0.606204 0.606204 1.649609 

4
1.043006 0.958767 0.958767 1.043006 

4
5.381441 0.185824 0.185824 5.381441 

4
1.000226 0.999774 0.999774 1.000226 

4
2.264021 0.441692 0.441692 2.264021 

4
1.914307 0.522382 0.522382 1.914307 

4
1.238205 0.807621 0.807621 1.238205 

4
2.047911 0.488303 0.488303 2.047911 

4
4.942029 0.202346 0.202346 4.942029 

4
1.623679 0.615885 0.615885 1.623679 

4
2.427444 0.411956 0.411956 2.427444 

4
1.092831 0.915055 0.915055 1.092831 

4
2.455231 0.407294 0.407294 2.455231 

4
3.349149 0.298583 0.298583 3.349149 

4
3.220342 0.310526 0.310526 3.220342 

4
1.661748 0.601776 0.601776 1.661748 

4
1.019481 0.980891 0.980891 1.019481 

4
3.622387 0.276061 0.276061 3.622387 

4
1.981988 0.504544 0.504544 1.981988 

4
3.486265 0.286840 0.286840 3.486265 

4
1.234076 0.810323 0.810323 1.234076 

4
2.189785 0.456666 0.456666 2.189785 

4
1.081812 0.924375 0.924375 1.081812 

4
10.317851 0.096919 0.096919 10.317851 

4
3.779045 0.264617 0.264617 3.779045 

4
1.112895 0.898558 0.898558 1.112895 

4
1.352224 0.739522 0.739522 1.352224 

4
4.299871 0.232565 0.232565 4.299871 

4
2.205484 0.453415 0.453415 2.205484 

4
1.172725 0.852715 0.852715 1.172725 

4
1.741687 0.574156 0.574156 1.741687 

4
2.173295 0.460131 0.460131 2.173295 

4
1.834130 0.545218 0.545218 1.834130 

4
4.718391 0.211937 0.211937 4.718391 

4
3.049828 0.327887 0.327887 3.049828 

4
4.413319 0.226587 0.226587 4.413319 

4
10.350402 0.096615 0.096615 10.350402 

4
6.360760 0.157214 0.157214 6.360760 

4
1.814164 0.551218 0.551218 1.814164 

4
1.319366 0.757940 0.757940 1.319366 

4
2.981438 0.335409 0.335409 2.981438 

4
2.153294 0.464405 0.464405 2.153294 

4
4.498809 0.222281 0.222281 4.498809 

4
3.264160 0.306358 0.306358 3.264160 

4
6.544475 0.152801 0.152801 6.544475 

4
2.530030 0.395252 0.395252 2.530030 

4
4.761351 0.210024 0.210024 4.761351 

4
3.473825 0.287867 0.287867 3.473825 

4
1.607372 0.622133 0.622133 1.607372 

4
1.129511 0.885339 0.885339 1.129511 

4
2.793245 0.358007 0.358007 2.793245 

4
1.066186 0.937923 0.937923 1.066186 

4
1.247885 0.801356 0.801356 1.247885 

4
4.595260 0.217616 0.217616 4.595260 

4
2.627977 0.380521 0.380521 2.627977 

4
2.622375 0.381334 0.381334 2.622375 

4
5.508250 0.181546 0.181546 5.508250 

4
2.003596 0.499103 0.499103 2.003596 

4
3.400829 0.294046 0.294046 3.400829 

4
12.177280 0.082120 0.082120 12.177280 

4
1.072698 0.932229 0.932229 1.072698 

4
1.203590 0.830848 0.830848 1.203590 

4
2.992451 0.334174 0.334174 2.992451 

4
2.525030 0.396035 0.396035 2.525030 

4
3.364884 0.297187 0.297187 3.364884 

4
1.262006 0.792389 0.792389 1.262006 

4
1.902168 0.525716 0.525716 1.902168 

4
2.062103 0.484942 0.484942 2.062103 

4
1.027535 0.973203 0.973203 1.027535 

4
4.823399 0.207323 0.207323 4.823399 

4
2.371814 0.421618 0.421618 2.371814 

4
1.357243 0.736788 0.736788 1.357243 

4
14.524682 0.068848 0.068848 14.524682 

4
2.077800 0.481278 0.481278 2.077800 

4
1.202241 0.831780 0.831780 1.202241 

4
1.162226 0.860418 0.860418 1.162226 

4
1.412195 0.708118 0.708118 1.412195 

4
5.778778 0.173047 0.173047 5.778778 

4
3.387836 0.295174 0.295174 3.387836 

4
1.656644 0.603630 0.603630 1.656644 

4
2.144431 0.466324 0.466324 2.144431 

4
1.945405 0.514032 0.514032 1.945405 

4
1.745007 0.573064 0.573064 1.745007 

4
2.918773 0.342610 0.342610 2.918773 

4
2.253002 0.443852 0.443852 2.253002 

4
1.445410 0.691845 0.691845 1.445410 

4
4.273328 0.234010 0.234010 4.273328 

4
4.129052 0.242186 0.242186 4.129052 

4
1.951337 0.512469 0.512469 1.951337 

4
1.375560 0.726976 0.726976 1.375560 

4
2.137395 0.467859 0.467859 2.137395 

4
2.779399 0.359790 0.359790 2.779399 

4
1.678274 0.595850 0.595850 1.678274 

4
1.013346 0.986830 0.986830 1.013346 

4
1.910892 0.523316 0.523316 1.910892 

4
1.019528 0.980846 0.980846 1.019528 

4
3.211569 0.311374 0.311374 3.211569 

4
1.160802 0.861473 0.861473 1.160802 

4
1.077176 0.928354 0.928354 1.077176 

4
4.827098 0.207164 0.207164 4.827098 

4
2.385811 0.419145 0.419145 2.385811 

4
1.196580 0.835715 0.835715 1.196580 

4
3.427736 0.291738 0.291738 3.427736 

4
1.972852 0.506881 0.506881 1.972852 

4
1.872679 0.533994 0.533994 1.872679 

4
1.047487 0.954666 0.954666 1.047487 

4
2.636308 0.379318 0.379318 2.636308 

4
1.059628 0.943728 0.943728 1.059628 

4
2.263242 0.441844 0.441844 2.263242 

4
5.777817 0.173076 0.173076 5.777817 

4
1.560362 0.640877 0.640877 1.560362 

4
1.539955 0.649370 0.649370 1.539955 

4
2.388965 0.418591 0.418591 2.388965 

4
1.197103 0.835350 0.835350 1.197103 

4
6.438315 0.155320 0.155320 6.438315 

4
3.445256 0.290254 0.290254 3.445256 

4
1.225569 0.815947 0.815947 1.225569 

4
2.037389 0.490824 0.490824 2.037389 

4
1.212295 0.824882 0.824882 1.212295 

4
9.312594 0.107381 0.107381 9.312594 

4
1.953085 0.512010 0.512010 1.953085 

4
1.496704 0.668135 0.668135 1.496704 

4
1.146654 0.872103 0.872103 1.146654 

4
1.520486 0.657685 0.657685 1.520486 

4
1.623769 0.615851 0.615851 1.623769 

4
1.096468 0.912019 0.912019 1.096468 

4
1.161891 0.860666 0.860666 1.161891 

4
1.589099 0.629287 0.629287 1.589099 

4
4.770416 0.209625 0.209625 4.770416 

4
6.266372 0.159582 0.159582 6.266372 

4
2.328740 0.429417 0.429417 2.328740 

4
2.892737 0.345693 0.345693 2.892737 

4
10.099380 0.099016 0.099016 10.099380 

4
3.488588 0.286649 0.286649 3.488588 

4
1.306877 0.765183 0.765183 1.306877 

4
1.090441 0.917060 0.917060 1.090441 

4
1.148715 0.870538 0.870538 1.148715 

4
11.986506 0.083427 0.083427 11.986506 

4
2.273974 0.439759 0.439759 2.273974 

4
1.703122 0.587157 0.587157 1.703122 

4
1.948853 0.513122 0.513122 1.948853 

4
3.701295 0.270176 0.270176 3.701295 

4
1.023338 0.977194 0.977194 1.023338 

4
1.076650 0.928807 0.928807 1.076650 

4
4.095329 0.244181 0.244181 4.095329 

4
5.260744 0.190087 0.190087 5.260744 

4
1.485731 0.673069 0.673069 1.485731 

4
1.088171 0.918973 0.918973 1.088171 

4
3.330362 0.300268 0.300268 3.330362 

4
1.257169 0.795438 0.795438 1.257169 

4
1.000710 0.999290 0.999290 1.000710 

4
2.056542 0.486253 0.486253 2.056542 

4
2.500293 0.399953 0.399953 2.500293 

4
1.340317 0.746092 0.746092 1.340317 

4
2.159573 0.463054 0.463054 2.159573 

4
1.242973 0.804523 0.804523 1.242973 

4
2.174887 0.459794 0.459794 2.174887 

4
1.741286 0.574288 0.574288 1.741286 

4
1.596785 0.626258 0.626258 1.596785 

4
2.047183 0.488476 0.488476 2.047183 

4
1.201288 0.832440 0.832440 1.201288 

4
1.328123 0.752942 0.752942 1.328123 

4
2.369218 0.422080 0.422080 2.369218 

4
1.570905 0.636576 0.636576 1.570905 

4
1.210423 0.826158 0.826158 1.210423 

4
1.002446 0.997560 0.997560 1.002446 

4
7.687335 0.130084 0.130084 7.687335 

4
1.550978 0.644754 0.644754 1.550978 

4
2.390125 0.418388 0.418388 2.390125 

4
1.488505 0.671815 0.671815 1.488505 

4
7.500091 0.133332 0.133332 7.500091 

4
2.347085 0.426060 0.426060 2.347085 

4
2.128416 0.469833 0.469833 2.128416 

4
6.642104 0.150555 0.150555 6.642104 

4
1.477143 0.676983 0.676983 1.477143 

4
5.891255 0.169743 0.169743 5.891255 

4
5.218106 0.191640 0.191640 5.218106 

4
4.529661 0.220767 0.220767 4.529661 

4
3.584158 0.279006 0.279006 3.584158 

4
14.931575 0.066972 0.066972 14.931575 

4
1.528214 0.654359 0.654359 1.528214 

4
1.417738 0.705349 0.705349 1.417738 

4
1.029941 0.970929 0.970929 1.029941 

4
3.778046 0.264687 0.264687 3.778046 

4
1.006840 0.993207 0.993207 1.006840 

4
1.076911 0.928582 0.928582 1.076911 

4
1.351570 0.739880 0.739880 1.351570 

4
1.056287 0.946712 0.946712 1.056287 

4
8.963973 0.111558 0.111558 8.963973 

4
1.807366 0.553291 0.553291 1.807366 

4
1.763367 0.567097 0.567097 1.763367 

4
11.172371 0.089507 0.089507 11.172371 

4
1.117623 0.894756 0.894756 1.117623 

4
1.038368 0.963050 0.963050 1.038368 

4
2.262773 0.441936 0.441936 2.262773 

4
1.131384 0.883874 0.883874 1.131384 

4
3.950884 0.253108 0.253108 3.950884 

4
1.729282 0.578275 0.578275 1.729282 

4
2.594155 0.385482 0.385482 2.594155 

4
1.769025 0.565283 0.565283 1.769025 

4
2.308907 0.433105 0.433105 2.308907 

4
1.352168 0.739553 0.739553 1.352168 

4
4.305466 0.232263 0.232263 4.305466 

4
2.613826 0.382581 0.382581 2.613826 

4
1.465356 0.682428 0.682428 1.465356 

4
1.409027 0.709710 0.709710 1.409027 

4
2.290985 0.436494 0.436494 2.290985 

4
3.963642 0.252293 0.252293 3.963642 

4
1.311734 0.762349 0.762349 1.311734 

4
3.722348 0.268648 0.268648 3.722348 

4
2.134975 0.468389 0.468389 2.134975 

4
1.091716 0.915989 0.915989 1.091716 

4
1.510485 0.662039 0.662039 1.510485 

4
4.714357 0.212118 0.212118 4.714357 

4
2.276338 0.439302 0.439302 2.276338 

4
1.069727 0.934818 0.934818 1.069727 

4
1.594133 0.627300 0.627300 1.594133 

4
1.084396 0.922173 0.922173 1.084396 

4
1.958033 0.510717 0.510717 1.958033 

4
2.958685 0.337988 0.337988 2.958685 

4
2.685935 0.372310 0.372310 2.685935 

4
2.490955 0.401452 0.401452 2.490955 

4
2.118729 0.471981 0.471981 2.118729 

4
1.481008 0.675216 0.675216 1.481008 

4
2.048338 0.488201 0.488201 2.048338 

4
1.169790 0.854854 0.854854 1.169790 

4
2.166174 0.461644 0.461644 2.166174 

4
1.854524 0.539222 0.539222 1.854524 

4
1.388622 0.720138 0.720138 1.388622 

4
1.984303 0.503955 0.503955 1.984303 

4
1.408305 0.710074 0.710074 1.408305 

4
3.019702 0.331159 0.331159 3.019702 

4
1.397167 0.715734 0.715734 1.397167 

4
3.985650 0.250900 0.250900 3.985650 

4
1.080771 0.925265 0.925265 1.080771 

4
27.025656 0.037002 0.037002 27.025656 

4
1.867807 0.535387 0.535387 1.867807 

4
1.433572 0.697558 0.697558 1.433572 

4
1.558974 0.641447 0.641447 1.558974 

4
8.168201 0.122426 0.122426 8.168201 

4
1.990985 0.502264 0.502264 1.990985 

4
1.020055 0.980340 0.980340 1.020055 

4
1.727370 0.578915 0.578915 1.727370 

4
3.068156 0.325929 0.325929 3.068156 

4
1.420316 0.704069 0.704069 1.420316 

4
4.369976 0.228834 0.228834 4.369976 

4
2.417558 0.413641 0.413641 2.417558 

4
1.002556 0.997451 0.997451 1.002556 

4
1.337372 0.747735 0.747735 1.337372 

4
1.176388 0.850060 0.850060 1.176388 

4
3.187116 0.313763 0.313763 3.187116 

4
1.673732 0.597467 0.597467 1.673732 

